p td 22 78
3 2
3 1
4 1
5 3
6 4
7 4
7 6
8 2
8 5
8 1
9 7
9 1
9 4
9 5
9 2
10 1
10 7
10 5
10 2
10 6
10 9
10 8
11 4
12 7
12 6
12 5
12 9
14 7
14 2
14 5
15 6
15 3
15 12
15 9
15 1
15 14
16 14
16 4
16 7
16 11
16 2
16 12
16 13
17 10
17 12
17 9
17 14
17 2
18 3
18 4
18 9
18 6
19 11
19 13
19 6
19 12
19 8
19 1
20 19
20 12
20 8
20 17
20 5
21 11
21 20
21 1
21 14
21 9
21 2
21 12
21 17
22 20
22 18
22 21
22 13
22 14
22 10
22 3
